%nprocshared=4
%chk=ZGQ1.chk
#p opt b3lyp/6-311+g(2d,p) guess=mix geom=connectivity

polymer1

0 1
 C                  7.39906802    4.95642231   -4.69408477
 C                  7.47842867    6.22076419   -4.15381359
 C                  6.18053196    6.74570601   -3.85237958
 C                  5.18541870    5.85149943   -4.17919178
 S                  5.81332041    4.44173852   -4.82312415
 H                  6.02336434    7.73452450   -3.41776315
 C                  8.59437450    4.09212238   -5.13660939
 C                  9.91860691    4.46733280   -5.08785360
 S                  8.41588349    2.54597985   -5.74794423
 C                 10.77707285    3.42908713   -5.57369760
 C                 10.05857580    2.32160686   -5.96601313
 H                 11.86337070    3.52559576   -5.61839848
 H                 10.47877729    1.40282588   -6.37031197
 C                  9.01657241    6.83275749   -3.99137821
 C                 10.20774158    5.98980328   -4.48345970
 N                  9.13645044    7.88345504   -3.55029362
 N                 11.26280943    6.46786403   -4.36130345
 S                 10.92052422    8.05605147   -3.63112412
 C                  3.67422481    6.08112389   -3.99166676
 C                  3.08916553    7.23724495   -3.52372007
 S                  2.52866657    4.92567179   -4.37737753
 C                  1.66408850    7.11343300   -3.45452261
 H                  3.62602850    8.13313343   -3.20670812
 C                  1.24058889    5.88629324   -3.91434663
 H                  1.01406488    7.90633020   -3.08017193
 C                 -0.30702221    5.80834447   -3.84694362
 C                 -1.04595771    4.86349779   -4.17491988
 C                 -2.29295982    5.03139676   -4.18554616
 C                 -2.46470205    6.32603069   -3.67603037
 N                 -1.21082202    6.85034643   -3.37603660
 C                 -0.95254966    8.18607986   -2.81924976
 H                 -0.29931996    8.10082822   -1.97608719
 H                 -0.49369806    8.80082009   -3.56520530
 H                 -1.87663692    8.62885943   -2.51117674
 C                 -0.44107587    3.50179115   -4.56411519
 O                  0.76951644    3.29987409   -4.56578752
 C                 -3.05807256    3.79279410   -4.69926206
 N                 -1.75973796    2.74270256   -4.88374790
 C                 -1.85523816    1.33135231   -5.28358561
 H                 -1.36650115    1.19361881   -6.22542722
 H                 -1.38369213    0.71844894   -4.54406293
 H                 -2.88503497    1.05468027   -5.37230490
 C                 -4.56066055    3.58283955   -4.96336130
 C                 -5.14033232    2.42271328   -5.42686873
 S                 -5.70005529    4.78001185   -4.70899121
 C                 -6.55920423    2.56208633   -5.56229366
 H                 -4.60596434    1.50174306   -5.66686723
 C                 -6.98061940    3.82075961   -5.19512496
 H                 -7.20656877    1.75708564   -5.91478214
 H                 -8.00947674    4.17493753   -5.20912229
 O                 -3.66061526    7.07891254   -3.45725993

 1 2 2.0 5 1.0 7 1.0
 2 3 1.0 14 1.0
 3 4 2.0 6 1.0
 4 5 1.0 19 1.0
 5
 6
 7 8 2.0 9 1.0
 8 10 1.0 15 1.0
 9 11 1.0
 10 11 2.0 12 1.0
 11 13 1.0
 12
 13
 14 15 1.0 16 2.0
 15 17 2.0
 16 18 1.0
 17 18 1.0
 18
 19 20 2.0 21 1.0
 20 22 1.0 23 1.0
 21 24 1.0
 22 24 2.0 25 1.0
 23
 24 26 1.0
 25
 26 27 2.0 30 1.0
 27 28 1.0 35 1.0
 28 29 1.0 37 2.0
 29 30 1.0 51 2.0
 30 31 1.0
 31 32 1.0 33 1.0 34 1.0
 32
 33
 34
 35 36 2.0 38 1.0
 36
 37 38 1.0 43 1.0
 38 39 1.0
 39 40 1.0 41 1.0 42 1.0
 40
 41
 42
 43 44 2.0 45 1.0
 44 46 1.0 47 1.0
 45 48 1.0
 46 48 2.0 49 1.0
 47
 48 50 1.0
 49
 50
 51

