%chk=ZGQ2.chk
# hf/3-21g geom=connectivity

Title Card Required

0 1
 C                -10.14170498   19.21479323  -14.13941392
 C                -10.01307708   20.03074498  -13.03740255
 C                 -9.57849744   19.29598879  -11.88751728
 C                 -9.39970761   17.96177300  -12.17831694
 S                 -9.74832285   17.62984916  -13.77976293
 H                 -9.41568862   19.75707069  -10.91168334
 C                -10.58826089   19.66470067  -15.54289926
 C                -10.95633065   20.94367286  -15.89716786
 S                -10.68067788   18.61644154  -16.84242146
 C                -11.31594688   21.02255944  -17.28115315
 C                -11.20240836   19.79913699  -17.90325326
 H                -11.63725796   21.94824499  -17.76200714
 H                -11.41785410   19.59713895  -18.95061435
 C                -10.39169389   21.63130138  -13.28574854
 C                -10.88943306   22.07040930  -14.67536717
 N                -10.30468603   22.35124783  -12.39861921
 N                -11.15554827   23.19803234  -14.79487188
 S                -10.84326146   23.87531495  -13.17733499
 C                 -8.93846018   16.87966867  -11.18438484
 C                 -8.69224528   17.07337161   -9.84284029
 S                 -8.70599116   15.28409093  -11.62737001
 C                 -8.26168755   15.86385345   -9.20829472
 H                 -8.77410405   18.02626990   -9.31689486
 C                 -8.24589193   14.80762109  -10.09191553
 H                 -7.98526125   15.80935155   -8.15379334
 C                 -7.80142979   13.51674428   -9.35583824
 C                 -7.66902183   12.37118876   -9.82113387
 C                 -7.43628961   11.41210295   -9.04055244
 C                 -7.28644805   12.02357730   -7.78802485
 N                 -7.44623827   13.39696883   -7.94733960
 C                 -7.36392207   14.39837175   -6.87434556
 H                 -6.70681308   15.18816846   -7.17322505
 H                 -8.33810382   14.79780560   -6.68376085
 H                 -6.98693209   13.93805321   -5.98502818
 C                 -7.78865802   12.12877929  -11.33722254
 O                 -8.01480001   13.03834963  -12.12959154
 C                 -7.38802545   10.05000124   -9.76566457
 N                 -7.56600448   10.59008191  -11.34649863
 C                 -7.51875808    9.74298980  -12.54695802
 H                 -8.47043642    9.76347592  -13.03561806
 H                 -6.76736949   10.11110861  -13.21389409
 H                 -7.28407809    8.73779422  -12.26516526
 C                 -7.22549230    8.62399961   -9.20736150
 C                 -7.19568475    7.46742734   -9.95449170
 S                 -7.06080320    8.30496830   -7.57419202
 C                 -7.03115334    6.31089479   -9.12604488
 H                 -7.28409422    7.41493907  -11.04112104
 C                 -6.94567027    6.65129921   -7.79432437
 H                 -6.98221873    5.29522171   -9.52274211
 O                 -7.01669788   11.44686099   -6.50758230
 C                 -7.26054573    3.12260927   -4.21249836
 C                 -7.10123935    2.97337477   -2.85268146
 S                 -7.18737449    1.65189824   -5.00483736
 C                 -7.48055004    4.45650311   -4.95001128
 C                 -6.91757162    1.59941168   -2.49288451
 C                 -7.16824070    4.37984157   -1.96714819
 C                 -6.94647354    0.77925288   -3.59885297
 C                 -7.58285459    5.69509793   -4.35657375
 S                 -7.62536939    4.55794864   -6.61280477
 H                 -6.77421887    1.26657888   -1.46330818
 C                 -7.44164499    5.70682324   -2.69924771
 N                 -7.04518826    4.30906951   -0.83016045
 C                 -6.78185912   -0.75187286   -3.58636015
 C                 -7.78436821    6.72800886   -5.32788704
 C                 -7.82505833    6.21819594   -6.60659621
 N                 -7.49372465    6.66133054   -2.03378853
 S                 -7.22973462    6.03771415   -0.38634438
 C                 -6.63966662   -1.53555362   -2.46230049
 S                 -6.78871902   -1.67411248   -4.98119816
 H                 -7.88998772    7.78196065   -5.06447625
 C                 -6.49177275   -2.91885933   -2.80223424
 H                 -6.60563290   -1.16682629   -1.43555006
 C                 -6.57314813   -3.11634319   -4.16276362
 H                 -6.33488097   -3.70224584   -2.05856384
 C                 -6.43588347   -4.62821017   -4.48078237
 C                 -6.46002309   -5.18731371   -5.59125518
 N                 -6.24826744   -5.70616146   -3.51787176
 C                 -6.47668472   -6.44421654   -5.64813139
 C                 -6.46943044   -4.34997945   -6.88368809
 C                 -6.34718330   -6.84545230   -4.31118786
 C                 -6.09909325   -5.69179552   -2.05553094
 C                 -6.59532522   -6.97524080   -7.09290672
 O                 -6.45378698   -3.12285488   -6.86860157
 N                 -6.51891904   -5.51222398   -7.91518641
 O                 -6.31033785   -8.15689865   -3.74228464
 H                 -5.28792189   -5.04814141   -1.78606776
 H                 -7.00262367   -5.33324098   -1.60834929
 H                 -5.89815167   -6.68354739   -1.70775125
 C                 -6.74023743   -8.41433008   -7.62170014
 C                 -6.50161546   -5.35591405   -9.37674989
 C                 -6.83891042   -8.77712114   -8.94661438
 S                 -6.79626735   -9.74738739   -6.61374930
 H                 -7.38198492   -4.83473846   -9.69015957
 H                 -5.63523317   -4.79837220   -9.66559036
 H                 -6.47503318   -6.32085496   -9.83835841
 C                 -6.96158313  -10.19623781   -9.09501099
 H                 -6.82709995   -8.08783142   -9.79282638
 C                 -6.95027887  -10.83472951   -7.87482142
 H                 -7.05162316  -10.68887065  -10.06483611
 H                 -7.02979275  -11.90887842   -7.71968595

 1 2 2.0 5 1.0 7 1.0
 2 3 1.0 14 1.0
 3 4 2.0 6 1.0
 4 5 1.0 19 1.0
 5
 6
 7 8 2.0 9 1.0
 8 10 1.0 15 1.0
 9 11 1.0
 10 11 2.0 12 1.0
 11 13 1.0
 12
 13
 14 15 1.0 16 2.0
 15 17 2.0
 16 18 1.0
 17 18 1.0
 18
 19 20 2.0 21 1.0
 20 22 1.0 23 1.0
 21 24 1.0
 22 24 2.0 25 1.0
 23
 24 26 1.0
 25
 26 27 2.0 30 1.0
 27 28 1.0 35 1.0
 28 29 1.0 37 2.0
 29 30 1.0 50 2.0
 30 31 1.0
 31 32 1.0 33 1.0 34 1.0
 32
 33
 34
 35 36 2.0 38 1.0
 36
 37 38 1.0 43 1.0
 38 39 1.0
 39 40 1.0 41 1.0 42 1.0
 40
 41
 42
 43 44 2.0 45 1.0
 44 46 1.0 47 1.0
 45 48 1.0
 46 48 2.0 49 1.0
 47
 48 65 1.0
 49
 50
 51 52 2.0 53 1.0 54 1.0
 52 55 1.0 56 1.0
 53 57 1.0
 54 58 2.0 59 1.0
 55 57 2.0 60 1.0
 56 61 1.0 62 2.0
 57 63 1.0
 58 64 1.0 61 1.0
 59 65 1.0
 60
 61 66 2.0
 62 67 1.0
 63 68 2.0 69 1.0
 64 65 2.0 70 1.0
 65
 66 67 1.0
 67
 68 71 1.0 72 1.0
 69 73 1.0
 70
 71 73 2.0 74 1.0
 72
 73 75 1.0
 74
 75 76 2.0 77 1.0
 76 78 1.0 79 1.0
 77 80 1.0 81 1.0
 78 80 1.0 82 2.0
 79 83 2.0 84 1.0
 80 85 2.0
 81 86 1.0 87 1.0 88 1.0
 82 84 1.0 89 1.0
 83
 84 90 1.0
 85
 86
 87
 88
 89 91 2.0 92 1.0
 90 93 1.0 94 1.0 95 1.0
 91 96 1.0 97 1.0
 92 98 1.0
 93
 94
 95
 96 98 2.0 99 1.0
 97
 98 100 1.0
 99
 100

